54
45
44
35
26
15
12
2
1
10
19
20
11
3
4
5
14
13
22
21
31
32
41
50
49
58
57
56
65
66
75
76
77
78
80
81
72
71
70
69
68
67
59
60
51
52
53
42
33
43
34
36
27
16
6
7
8
9
18
17
25
24
23
30
29
28
37
38
39
40
48
47
46
55
64
74
73
82
83
91
92
93
94
84
85
86
95
96
97
98
99
90
89
87
88
79
61
62
63
54
